p cnf 204 1200
1 -91 0
1 -92 0
91 -91 0
92 -92 0
19 -97 0
19 -98 0
97 -97 0
98 -98 0
37 -103 0
37 -104 0
103 -103 0
104 -104 0
55 -109 0
55 -110 0
109 -109 0
110 -110 0
73 -115 0
73 -116 0
115 -115 0
116 -116 0
2 -91 0
2 -92 0
91 -91 0
92 -92 0
20 -97 0
20 -98 0
97 -97 0
98 -98 0
38 -103 0
38 -104 0
103 -103 0
104 -104 0
56 -109 0
56 -110 0
109 -109 0
110 -110 0
74 -115 0
74 -116 0
115 -115 0
116 -116 0
3 -91 0
3 -92 0
91 -91 0
92 -92 0
21 -97 0
21 -98 0
97 -97 0
98 -98 0
39 -103 0
39 -104 0
103 -103 0
104 -104 0
57 -109 0
57 -110 0
109 -109 0
110 -110 0
75 -115 0
75 -116 0
115 -115 0
116 -116 0
4 -91 0
4 -92 0
91 -91 0
92 -92 0
22 -97 0
22 -98 0
97 -97 0
98 -98 0
40 -103 0
40 -104 0
103 -103 0
104 -104 0
58 -109 0
58 -110 0
109 -109 0
110 -110 0
76 -115 0
76 -116 0
115 -115 0
116 -116 0
5 -91 0
5 -92 0
91 -91 0
92 -92 0
23 -97 0
23 -98 0
97 -97 0
98 -98 0
41 -103 0
41 -104 0
103 -103 0
104 -104 0
59 -109 0
59 -110 0
109 -109 0
110 -110 0
77 -115 0
77 -116 0
115 -115 0
116 -116 0
6 -121 -91 0
-6 121 -91 0
6 121 -92 0
-6 -121 -92 0
24 -121 -97 0
-24 121 -97 0
24 121 -98 0
-24 -121 -98 0
42 -121 -103 0
-42 121 -103 0
42 121 -104 0
-42 -121 -104 0
60 -121 -109 0
-60 121 -109 0
60 121 -110 0
-60 -121 -110 0
78 -121 -115 0
-78 121 -115 0
78 121 -116 0
-78 -121 -116 0
7 -91 0
7 -92 0
91 -91 0
92 -92 0
25 -97 0
25 -98 0
97 -97 0
98 -98 0
43 -103 0
43 -104 0
103 -103 0
104 -104 0
61 -109 0
61 -110 0
109 -109 0
110 -110 0
79 -115 0
79 -116 0
115 -115 0
116 -116 0
-8 -91 0
-8 -92 0
91 -91 0
92 -92 0
-26 -97 0
-26 -98 0
97 -97 0
98 -98 0
-44 -103 0
-44 -104 0
103 -103 0
104 -104 0
-62 -109 0
-62 -110 0
109 -109 0
110 -110 0
-80 -115 0
-80 -116 0
115 -115 0
116 -116 0
9 -91 0
9 -92 0
91 -91 0
92 -92 0
27 -97 0
27 -98 0
97 -97 0
98 -98 0
45 -103 0
45 -104 0
103 -103 0
104 -104 0
63 -109 0
63 -110 0
109 -109 0
110 -110 0
81 -115 0
81 -116 0
115 -115 0
116 -116 0
10 -91 0
10 -92 0
91 -91 0
92 -92 0
28 -97 0
28 -98 0
97 -97 0
98 -98 0
46 -103 0
46 -104 0
103 -103 0
104 -104 0
64 -109 0
64 -110 0
109 -109 0
110 -110 0
82 -115 0
82 -116 0
115 -115 0
116 -116 0
11 -91 0
11 -92 0
91 -91 0
92 -92 0
29 -97 0
29 -98 0
97 -97 0
98 -98 0
47 -103 0
47 -104 0
103 -103 0
104 -104 0
65 -109 0
65 -110 0
109 -109 0
110 -110 0
83 -115 0
83 -116 0
115 -115 0
116 -116 0
12 -91 0
12 -92 0
91 -91 0
92 -92 0
30 -97 0
30 -98 0
97 -97 0
98 -98 0
48 -103 0
48 -104 0
103 -103 0
104 -104 0
66 -109 0
66 -110 0
109 -109 0
110 -110 0
84 -115 0
84 -116 0
115 -115 0
116 -116 0
13 -91 0
13 -92 0
91 -91 0
92 -92 0
31 -97 0
31 -98 0
97 -97 0
98 -98 0
49 -103 0
49 -104 0
103 -103 0
104 -104 0
67 -109 0
67 -110 0
109 -109 0
110 -110 0
85 -115 0
85 -116 0
115 -115 0
116 -116 0
14 -91 0
14 -92 0
91 -91 0
92 -92 0
32 -97 0
32 -98 0
97 -97 0
98 -98 0
50 -103 0
50 -104 0
103 -103 0
104 -104 0
68 -109 0
68 -110 0
109 -109 0
110 -110 0
86 -115 0
86 -116 0
115 -115 0
116 -116 0
15 -91 0
15 -92 0
91 -91 0
92 -92 0
33 -97 0
33 -98 0
97 -97 0
98 -98 0
51 -103 0
51 -104 0
103 -103 0
104 -104 0
69 -109 0
69 -110 0
109 -109 0
110 -110 0
87 -115 0
87 -116 0
115 -115 0
116 -116 0
16 -91 0
16 -92 0
91 -91 0
92 -92 0
34 -97 0
34 -98 0
97 -97 0
98 -98 0
52 -103 0
52 -104 0
103 -103 0
104 -104 0
70 -109 0
70 -110 0
109 -109 0
110 -110 0
88 -115 0
88 -116 0
115 -115 0
116 -116 0
17 -91 0
17 -92 0
91 -91 0
92 -92 0
35 -97 0
35 -98 0
97 -97 0
98 -98 0
53 -103 0
53 -104 0
103 -103 0
104 -104 0
71 -109 0
71 -110 0
109 -109 0
110 -110 0
89 -115 0
89 -116 0
115 -115 0
116 -116 0
18 -91 0
18 -92 0
91 -91 0
92 -92 0
36 -97 0
36 -98 0
97 -97 0
98 -98 0
54 -103 0
54 -104 0
103 -103 0
104 -104 0
72 -109 0
72 -110 0
109 -109 0
110 -110 0
90 -115 0
90 -116 0
115 -115 0
116 -116 0
-175 91 0
175 -91 0
-176 92 0
175 -92 0
-175 -91 0
-176 -92 0
-181 91 175 0
181 -91 0
181 -175 0
-182 92 176 0
182 -92 0
182 -176 0
-181 -97 0
-182 -98 0
-187 97 181 0
187 -97 0
187 -181 0
-188 98 182 0
188 -98 0
188 -182 0
-187 -103 0
-188 -104 0
-193 103 187 0
193 -103 0
193 -187 0
-194 104 188 0
194 -104 0
194 -188 0
-193 -109 0
-194 -110 0
-199 109 193 0
199 -109 0
199 -193 0
-200 110 194 0
200 -110 0
200 -194 0
-199 -115 0
-200 -116 0
199 0
200 0
1 -122 -93 0
-1 122 -93 0
1 122 -94 0
-1 -122 -94 0
19 -122 -99 0
-19 122 -99 0
19 122 -100 0
-19 -122 -100 0
37 -122 -105 0
-37 122 -105 0
37 122 -106 0
-37 -122 -106 0
55 -122 -111 0
-55 122 -111 0
55 122 -112 0
-55 -122 -112 0
73 -122 -117 0
-73 122 -117 0
73 122 -118 0
-73 -122 -118 0
2 -93 0
2 -94 0
93 -93 0
94 -94 0
20 -99 0
20 -100 0
99 -99 0
100 -100 0
38 -105 0
38 -106 0
105 -105 0
106 -106 0
56 -111 0
56 -112 0
111 -111 0
112 -112 0
74 -117 0
74 -118 0
117 -117 0
118 -118 0
3 -93 0
3 -94 0
93 -93 0
94 -94 0
21 -99 0
21 -100 0
99 -99 0
100 -100 0
39 -105 0
39 -106 0
105 -105 0
106 -106 0
57 -111 0
57 -112 0
111 -111 0
112 -112 0
75 -117 0
75 -118 0
117 -117 0
118 -118 0
4 -93 0
4 -94 0
93 -93 0
94 -94 0
22 -99 0
22 -100 0
99 -99 0
100 -100 0
40 -105 0
40 -106 0
105 -105 0
106 -106 0
58 -111 0
58 -112 0
111 -111 0
112 -112 0
76 -117 0
76 -118 0
117 -117 0
118 -118 0
5 -93 0
5 -94 0
93 -93 0
94 -94 0
23 -99 0
23 -100 0
99 -99 0
100 -100 0
41 -105 0
41 -106 0
105 -105 0
106 -106 0
59 -111 0
59 -112 0
111 -111 0
112 -112 0
77 -117 0
77 -118 0
117 -117 0
118 -118 0
6 -123 -93 0
-6 123 -93 0
6 123 -94 0
-6 -123 -94 0
24 -123 -99 0
-24 123 -99 0
24 123 -100 0
-24 -123 -100 0
42 -123 -105 0
-42 123 -105 0
42 123 -106 0
-42 -123 -106 0
60 -123 -111 0
-60 123 -111 0
60 123 -112 0
-60 -123 -112 0
78 -123 -117 0
-78 123 -117 0
78 123 -118 0
-78 -123 -118 0
7 -93 0
7 -94 0
93 -93 0
94 -94 0
25 -99 0
25 -100 0
99 -99 0
100 -100 0
43 -105 0
43 -106 0
105 -105 0
106 -106 0
61 -111 0
61 -112 0
111 -111 0
112 -112 0
79 -117 0
79 -118 0
117 -117 0
118 -118 0
-8 -93 0
-8 -94 0
93 -93 0
94 -94 0
-26 -99 0
-26 -100 0
99 -99 0
100 -100 0
-44 -105 0
-44 -106 0
105 -105 0
106 -106 0
-62 -111 0
-62 -112 0
111 -111 0
112 -112 0
-80 -117 0
-80 -118 0
117 -117 0
118 -118 0
9 -93 0
9 -94 0
93 -93 0
94 -94 0
27 -99 0
27 -100 0
99 -99 0
100 -100 0
45 -105 0
45 -106 0
105 -105 0
106 -106 0
63 -111 0
63 -112 0
111 -111 0
112 -112 0
81 -117 0
81 -118 0
117 -117 0
118 -118 0
10 -124 -93 0
-10 124 -93 0
10 124 -94 0
-10 -124 -94 0
28 -124 -99 0
-28 124 -99 0
28 124 -100 0
-28 -124 -100 0
46 -124 -105 0
-46 124 -105 0
46 124 -106 0
-46 -124 -106 0
64 -124 -111 0
-64 124 -111 0
64 124 -112 0
-64 -124 -112 0
82 -124 -117 0
-82 124 -117 0
82 124 -118 0
-82 -124 -118 0
11 -125 -93 0
-11 125 -93 0
11 125 -94 0
-11 -125 -94 0
29 -125 -99 0
-29 125 -99 0
29 125 -100 0
-29 -125 -100 0
47 -125 -105 0
-47 125 -105 0
47 125 -106 0
-47 -125 -106 0
65 -125 -111 0
-65 125 -111 0
65 125 -112 0
-65 -125 -112 0
83 -125 -117 0
-83 125 -117 0
83 125 -118 0
-83 -125 -118 0
12 -93 0
12 -94 0
93 -93 0
94 -94 0
30 -99 0
30 -100 0
99 -99 0
100 -100 0
48 -105 0
48 -106 0
105 -105 0
106 -106 0
66 -111 0
66 -112 0
111 -111 0
112 -112 0
84 -117 0
84 -118 0
117 -117 0
118 -118 0
13 -93 0
13 -94 0
93 -93 0
94 -94 0
31 -99 0
31 -100 0
99 -99 0
100 -100 0
49 -105 0
49 -106 0
105 -105 0
106 -106 0
67 -111 0
67 -112 0
111 -111 0
112 -112 0
85 -117 0
85 -118 0
117 -117 0
118 -118 0
14 -126 -93 0
-14 126 -93 0
14 126 -94 0
-14 -126 -94 0
32 -126 -99 0
-32 126 -99 0
32 126 -100 0
-32 -126 -100 0
50 -126 -105 0
-50 126 -105 0
50 126 -106 0
-50 -126 -106 0
68 -126 -111 0
-68 126 -111 0
68 126 -112 0
-68 -126 -112 0
86 -126 -117 0
-86 126 -117 0
86 126 -118 0
-86 -126 -118 0
15 -127 -93 0
-15 127 -93 0
15 127 -94 0
-15 -127 -94 0
33 -127 -99 0
-33 127 -99 0
33 127 -100 0
-33 -127 -100 0
51 -127 -105 0
-51 127 -105 0
51 127 -106 0
-51 -127 -106 0
69 -127 -111 0
-69 127 -111 0
69 127 -112 0
-69 -127 -112 0
87 -127 -117 0
-87 127 -117 0
87 127 -118 0
-87 -127 -118 0
16 -93 0
16 -94 0
93 -93 0
94 -94 0
34 -99 0
34 -100 0
99 -99 0
100 -100 0
52 -105 0
52 -106 0
105 -105 0
106 -106 0
70 -111 0
70 -112 0
111 -111 0
112 -112 0
88 -117 0
88 -118 0
117 -117 0
118 -118 0
-17 -93 0
-17 -94 0
93 -93 0
94 -94 0
-35 -99 0
-35 -100 0
99 -99 0
100 -100 0
-53 -105 0
-53 -106 0
105 -105 0
106 -106 0
-71 -111 0
-71 -112 0
111 -111 0
112 -112 0
-89 -117 0
-89 -118 0
117 -117 0
118 -118 0
18 -93 0
18 -94 0
93 -93 0
94 -94 0
36 -99 0
36 -100 0
99 -99 0
100 -100 0
54 -105 0
54 -106 0
105 -105 0
106 -106 0
72 -111 0
72 -112 0
111 -111 0
112 -112 0
90 -117 0
90 -118 0
117 -117 0
118 -118 0
-177 93 0
177 -93 0
-178 94 0
177 -94 0
-177 -93 0
-178 -94 0
-183 93 177 0
183 -93 0
183 -177 0
-184 94 178 0
184 -94 0
184 -178 0
-183 -99 0
-184 -100 0
-189 99 183 0
189 -99 0
189 -183 0
-190 100 184 0
190 -100 0
190 -184 0
-189 -105 0
-190 -106 0
-195 105 189 0
195 -105 0
195 -189 0
-196 106 190 0
196 -106 0
196 -190 0
-195 -111 0
-196 -112 0
-201 111 195 0
201 -111 0
201 -195 0
-202 112 196 0
202 -112 0
202 -196 0
-201 -117 0
-202 -118 0
201 0
202 0
1 -95 0
1 -96 0
95 -95 0
96 -96 0
19 -101 0
19 -102 0
101 -101 0
102 -102 0
37 -107 0
37 -108 0
107 -107 0
108 -108 0
55 -113 0
55 -114 0
113 -113 0
114 -114 0
73 -119 0
73 -120 0
119 -119 0
120 -120 0
2 -95 0
2 -96 0
95 -95 0
96 -96 0
20 -101 0
20 -102 0
101 -101 0
102 -102 0
38 -107 0
38 -108 0
107 -107 0
108 -108 0
56 -113 0
56 -114 0
113 -113 0
114 -114 0
74 -119 0
74 -120 0
119 -119 0
120 -120 0
3 -95 0
3 -96 0
95 -95 0
96 -96 0
21 -101 0
21 -102 0
101 -101 0
102 -102 0
39 -107 0
39 -108 0
107 -107 0
108 -108 0
57 -113 0
57 -114 0
113 -113 0
114 -114 0
75 -119 0
75 -120 0
119 -119 0
120 -120 0
4 -95 0
4 -96 0
95 -95 0
96 -96 0
22 -101 0
22 -102 0
101 -101 0
102 -102 0
40 -107 0
40 -108 0
107 -107 0
108 -108 0
58 -113 0
58 -114 0
113 -113 0
114 -114 0
76 -119 0
76 -120 0
119 -119 0
120 -120 0
5 -95 0
5 -96 0
95 -95 0
96 -96 0
23 -101 0
23 -102 0
101 -101 0
102 -102 0
41 -107 0
41 -108 0
107 -107 0
108 -108 0
59 -113 0
59 -114 0
113 -113 0
114 -114 0
77 -119 0
77 -120 0
119 -119 0
120 -120 0
-6 -95 0
-6 -96 0
95 -95 0
96 -96 0
-24 -101 0
-24 -102 0
101 -101 0
102 -102 0
-42 -107 0
-42 -108 0
107 -107 0
108 -108 0
-60 -113 0
-60 -114 0
113 -113 0
114 -114 0
-78 -119 0
-78 -120 0
119 -119 0
120 -120 0
7 -95 0
7 -96 0
95 -95 0
96 -96 0
25 -101 0
25 -102 0
101 -101 0
102 -102 0
43 -107 0
43 -108 0
107 -107 0
108 -108 0
61 -113 0
61 -114 0
113 -113 0
114 -114 0
79 -119 0
79 -120 0
119 -119 0
120 -120 0
-8 -95 0
-8 -96 0
95 -95 0
96 -96 0
-26 -101 0
-26 -102 0
101 -101 0
102 -102 0
-44 -107 0
-44 -108 0
107 -107 0
108 -108 0
-62 -113 0
-62 -114 0
113 -113 0
114 -114 0
-80 -119 0
-80 -120 0
119 -119 0
120 -120 0
-9 -95 0
-9 -96 0
95 -95 0
96 -96 0
-27 -101 0
-27 -102 0
101 -101 0
102 -102 0
-45 -107 0
-45 -108 0
107 -107 0
108 -108 0
-63 -113 0
-63 -114 0
113 -113 0
114 -114 0
-81 -119 0
-81 -120 0
119 -119 0
120 -120 0
10 -95 0
10 -96 0
95 -95 0
96 -96 0
28 -101 0
28 -102 0
101 -101 0
102 -102 0
46 -107 0
46 -108 0
107 -107 0
108 -108 0
64 -113 0
64 -114 0
113 -113 0
114 -114 0
82 -119 0
82 -120 0
119 -119 0
120 -120 0
11 -128 -95 0
-11 128 -95 0
11 128 -96 0
-11 -128 -96 0
29 -128 -101 0
-29 128 -101 0
29 128 -102 0
-29 -128 -102 0
47 -128 -107 0
-47 128 -107 0
47 128 -108 0
-47 -128 -108 0
65 -128 -113 0
-65 128 -113 0
65 128 -114 0
-65 -128 -114 0
83 -128 -119 0
-83 128 -119 0
83 128 -120 0
-83 -128 -120 0
12 -95 0
12 -96 0
95 -95 0
96 -96 0
30 -101 0
30 -102 0
101 -101 0
102 -102 0
48 -107 0
48 -108 0
107 -107 0
108 -108 0
66 -113 0
66 -114 0
113 -113 0
114 -114 0
84 -119 0
84 -120 0
119 -119 0
120 -120 0
13 -95 0
13 -96 0
95 -95 0
96 -96 0
31 -101 0
31 -102 0
101 -101 0
102 -102 0
49 -107 0
49 -108 0
107 -107 0
108 -108 0
67 -113 0
67 -114 0
113 -113 0
114 -114 0
85 -119 0
85 -120 0
119 -119 0
120 -120 0
-14 -95 0
-14 -96 0
95 -95 0
96 -96 0
-32 -101 0
-32 -102 0
101 -101 0
102 -102 0
-50 -107 0
-50 -108 0
107 -107 0
108 -108 0
-68 -113 0
-68 -114 0
113 -113 0
114 -114 0
-86 -119 0
-86 -120 0
119 -119 0
120 -120 0
15 -129 -95 0
-15 129 -95 0
15 129 -96 0
-15 -129 -96 0
33 -129 -101 0
-33 129 -101 0
33 129 -102 0
-33 -129 -102 0
51 -129 -107 0
-51 129 -107 0
51 129 -108 0
-51 -129 -108 0
69 -129 -113 0
-69 129 -113 0
69 129 -114 0
-69 -129 -114 0
87 -129 -119 0
-87 129 -119 0
87 129 -120 0
-87 -129 -120 0
16 -95 0
16 -96 0
95 -95 0
96 -96 0
34 -101 0
34 -102 0
101 -101 0
102 -102 0
52 -107 0
52 -108 0
107 -107 0
108 -108 0
70 -113 0
70 -114 0
113 -113 0
114 -114 0
88 -119 0
88 -120 0
119 -119 0
120 -120 0
17 -130 -95 0
-17 130 -95 0
17 130 -96 0
-17 -130 -96 0
35 -130 -101 0
-35 130 -101 0
35 130 -102 0
-35 -130 -102 0
53 -130 -107 0
-53 130 -107 0
53 130 -108 0
-53 -130 -108 0
71 -130 -113 0
-71 130 -113 0
71 130 -114 0
-71 -130 -114 0
89 -130 -119 0
-89 130 -119 0
89 130 -120 0
-89 -130 -120 0
18 -95 0
18 -96 0
95 -95 0
96 -96 0
36 -101 0
36 -102 0
101 -101 0
102 -102 0
54 -107 0
54 -108 0
107 -107 0
108 -108 0
72 -113 0
72 -114 0
113 -113 0
114 -114 0
90 -119 0
90 -120 0
119 -119 0
120 -120 0
-179 95 0
179 -95 0
-180 96 0
179 -96 0
-179 -95 0
-180 -96 0
-185 95 179 0
185 -95 0
185 -179 0
-186 96 180 0
186 -96 0
186 -180 0
-185 -101 0
-186 -102 0
-191 101 185 0
191 -101 0
191 -185 0
-192 102 186 0
192 -102 0
192 -186 0
-191 -107 0
-192 -108 0
-197 107 191 0
197 -107 0
197 -191 0
-198 108 192 0
198 -108 0
198 -192 0
-197 -113 0
-198 -114 0
-203 113 197 0
203 -113 0
203 -197 0
-204 114 198 0
204 -114 0
204 -198 0
-203 -119 0
-204 -120 0
203 0
204 0
